
Log started (V12.6.1.0) Wed Feb 07 16:40:53 2018

New value for time limit in seconds: 10800
New value for default parallel thread count: 1
Tried aggregator 3 times.
MIP Presolve eliminated 18074 rows and 1298 columns.
MIP Presolve modified 144 coefficients.
Aggregator did 13 substitutions.
Reduced MIP has 3843 rows, 17586 columns, and 107617 nonzeros.
Reduced MIP has 17388 binaries, 198 generals, 0 SOSs, and 0 indicators.
Presolve time = 0.14 sec. (94.42 ticks)
Found incumbent of value 787.000000 after 0.34 sec. (228.05 ticks)
Probing time = 0.03 sec. (6.80 ticks)
Tried aggregator 1 time.
Reduced MIP has 3843 rows, 17586 columns, and 107617 nonzeros.
Reduced MIP has 17388 binaries, 198 generals, 0 SOSs, and 0 indicators.
Presolve time = 0.06 sec. (47.61 ticks)
Probing time = 0.02 sec. (5.88 ticks)
Clique table members: 47492.
MIP emphasis: balance optimality and feasibility.
MIP search method: dynamic search.
Parallel mode: none, using 1 thread.
Root relaxation solution time = 1.23 sec. (1513.06 ticks)

        Nodes                                         Cuts/
   Node  Left     Objective  IInf  Best Integer    Best Bound    ItCnt     Gap

*     0+    0                          787.0000     -655.0000           183.23%
      0     0       17.0000   759      787.0000       17.0000     5296   97.84%
      0     0       26.3333   444      787.0000      Cuts: 17     7541   96.65%
      0     0       33.0000   546      787.0000      Cuts: 60    10576   95.81%
      0     0       33.0000   521      787.0000      Cuts: 53    13377   95.81%
      0     0       33.0000   554      787.0000      Cuts: 46    16158   95.81%
      0     0       33.0000   285      787.0000   ZeroHalf: 5    17100   95.81%
      0     0       33.0000   468      787.0000      Cuts: 36    18800   95.81%
*     0+    0                           55.0000       33.0000            40.00%
*     0+    0                           54.0000       33.0000            38.89%
*     0+    0                           52.0000       33.0000            36.54%
*     0+    0                           50.0000       33.0000            34.00%
      0     2       33.0000   171       50.0000       33.0000    18800   34.00%
Elapsed time = 22.19 sec. (25531.35 ticks, tree = 0.00 MB, solutions = 5)
      1     3       34.0000   263       50.0000       33.0000    22443   34.00%
      2     4       33.0000   371       50.0000       33.0000    24569   34.00%
      3     5       33.0000   379       50.0000       33.0000    25302   34.00%
      4     6       33.0000   346       50.0000       33.0000    26804   34.00%
      6     6        cutoff             50.0000       33.0000    29366   34.00%
      8     8       33.0000   336       50.0000       33.0000    29653   34.00%
     10    10       33.0000   314       50.0000       33.0000    32149   34.00%
     11    11       33.0000   303       50.0000       33.0000    36236   34.00%
     13    13       33.0000   305       50.0000       33.0000    39099   34.00%
     14    14       33.0000   349       50.0000       33.0000    41194   34.00%
Elapsed time = 26.56 sec. (31682.12 ticks, tree = 0.41 MB, solutions = 5)
     19    19       34.0000   379       50.0000       33.0000    46394   34.00%
     23    23       33.0000   310       50.0000       33.0000    52939   34.00%
     33    33       33.0000   200       50.0000       33.0000    59787   34.00%
     37    37       33.0333   318       50.0000       33.0000    69938   34.00%
     46    44       33.4444   308       50.0000       33.0000    79077   34.00%
     54    52       33.0333   289       50.0000       33.0000    93390   34.00%
     60    58       33.0333   306       50.0000       33.0000   100086   34.00%
     65    63       33.0735   297       50.0000       33.0000   109585   34.00%
     70    68       33.5359   324       50.0000       33.0000   114170   34.00%
     75    73       33.1818   316       50.0000       33.0000   122910   34.00%
Elapsed time = 35.86 sec. (42385.59 ticks, tree = 1.23 MB, solutions = 5)
     80    78       33.1820   311       50.0000       33.0000   132073   34.00%
     88    86       33.9909   329       50.0000       33.0000   144992   34.00%
     99    97       35.2167   260       50.0000       33.0000   157075   34.00%
    111   109       35.4222   208       50.0000       33.0000   168770   34.00%
    126   124       35.8556   234       50.0000       33.0000   183932   34.00%
    145   143       35.6389   227       50.0000       33.0000   199582   34.00%
    165   163       37.4861   250       50.0000       33.0000   213868   34.00%
    189   185       42.7167   198       50.0000       33.0000   228177   34.00%
    210   202       37.0000   164       50.0000       33.0000   243371   34.00%
    219   211       42.2500   180       50.0000       33.0000   261578   34.00%
Elapsed time = 45.69 sec. (52382.53 ticks, tree = 2.84 MB, solutions = 5)
    230   222       42.0000   127       50.0000       33.0000   275608   34.00%
    249   241       43.0000    94       50.0000       33.0000   294788   34.00%
    261   253       43.2500   114       50.0000       33.0000   312012   34.00%
    272   264       44.7917   157       50.0000       33.0000   332341   34.00%
    290   276        cutoff             50.0000       33.0000   349661   34.00%
    325   307       45.0000   153       50.0000       33.0000   365789   34.00%
    347   327       48.0000   111       50.0000       33.0000   381904   34.00%
    366   344       49.0000   118       50.0000       33.0000   398602   34.00%
    383   351       49.0000   111       50.0000       33.0000   417258   34.00%
    399   361       44.6667   141       50.0000       33.0000   435261   34.00%
Elapsed time = 56.05 sec. (62135.63 ticks, tree = 4.49 MB, solutions = 5)
    416   378       47.0000    88       50.0000       33.0000   452175   34.00%
    428   390       48.5429   114       50.0000       33.0000   469574   34.00%
    444   402       44.0000   175       50.0000       33.0000   488023   34.00%
    455   413       48.0000   152       50.0000       33.0000   502323   34.00%
    467   425       48.5000    87       50.0000       33.0000   519463   34.00%
    482   438       48.5833    35       50.0000       33.0000   535659   34.00%
    497   441       38.0000   179       50.0000       33.0000   552602   34.00%
    515   459       44.6667   192       50.0000       33.0000   572137   34.00%
    525   469       47.1667   129       50.0000       33.0000   586564   34.00%
    534   478       47.2222   121       50.0000       33.0000   602700   34.00%
Elapsed time = 66.75 sec. (72128.66 ticks, tree = 5.81 MB, solutions = 5)
    548   492       47.2222    80       50.0000       33.0000   616840   34.00%
    562   502       48.8889    43       50.0000       33.0000   634064   34.00%
    575   509       49.0000    38       50.0000       33.0000   649017   34.00%
    596   520       49.0000    45       50.0000       33.0000   665891   34.00%
    617   535       45.0000   171       50.0000       33.0000   685572   34.00%
    630   548       45.0000   162       50.0000       33.0000   701368   34.00%
    640   558       46.6667   137       50.0000       33.0000   712518   34.00%
    653   571       47.3250    79       50.0000       33.0000   729201   34.00%
    674   588        cutoff             50.0000       33.0000   744679   34.00%
    699   603       37.0000   214       50.0000       33.0000   763296   34.00%
Elapsed time = 77.19 sec. (82340.44 ticks, tree = 7.29 MB, solutions = 5)
    714   614       38.0000   236       50.0000       33.0000   785931   34.00%
    735   635       46.0000   109       50.0000       33.0000   796986   34.00%
    744   644       47.0000   106       50.0000       33.0000   813837   34.00%
    765   665       48.0000    94       50.0000       33.0000   831148   34.00%
    774   668       33.0000   239       50.0000       33.0000   850974   34.00%
    790   684       45.3333   181       50.0000       33.0000   864761   34.00%
    804   694       47.7500   248       50.0000       33.0000   880163   34.00%
    826   714       49.0000   191       50.0000       33.0000   893120   34.00%
    847   729       45.0000   250       50.0000       33.0000   911289   34.00%
    864   746       46.0000   202       50.0000       33.0000   924420   34.00%
Elapsed time = 88.23 sec. (92404.22 ticks, tree = 9.02 MB, solutions = 5)
    880   762       46.0000   125       50.0000       33.0000   936444   34.00%
    888   770       47.3636   141       50.0000       33.0000   957189   34.00%
    897   779       48.9545   150       50.0000       33.0000   973610   34.00%
    913   791       45.0000   243       50.0000       33.0000   989880   34.00%
    932   810       48.0000   135       50.0000       33.0000  1003968   34.00%
    947   817        cutoff             50.0000       33.0000  1022961   34.00%
    967   829       45.0000   179       50.0000       33.0000  1041328   34.00%
    977   839       45.4737   174       50.0000       33.0000  1057447   34.00%
    984   846       45.7778   258       50.0000       33.0000  1072748   34.00%
*   987+  715                           49.0000       33.0000            32.65%
*   987+  536                           47.0000       33.0000            29.79%
    987   538       37.0000   243       47.0000       33.0000  1075971   29.79%
Elapsed time = 102.22 sec. (105467.27 ticks, tree = 6.74 MB, solutions = 7)
*   988     0      integral     0       47.0000                1095267    0.00%

Clique cuts applied:  64
Zero-half cuts applied:  18
Lift and project cuts applied:  3
Gomory fractional cuts applied:  37

Root node processing (before b&c):
  Real time             =   21.78 sec. (25175.36 ticks)
Sequential b&c:
  Real time             =  100.09 sec. (103614.28 ticks)
                          ------------
Total (root+branch&cut) =  121.88 sec. (128789.65 ticks)

Solution pool: 7 solutions saved.

MIP - Integer optimal solution:  Objective = 4.7000000000e+001
Solution time =  121.89 sec.  Iterations = 1095267  Nodes = 988
Deterministic time = 128789.70 ticks  (1056.60 ticks/sec)


Incumbent solution written to file 'Casey-1in.sol'.
